data/solutions/planning/wellformed/hard/highest_rank_objective/wellformed_hard_instance42_cplex.sol
Elapsed time: 56.28
Nodes explored: 54515
Nodes left: -
Relative gap: -
Upper bound: 8952902668.0
Lower bound: -
C[0]=273232.0
C[1]=273228.0
C[2]=273228.0
C[3]=273226.0
C[4]=273222.0
C[5]=273215.0
C[6]=273214.0
C[7]=273213.0
C[8]=273212.0
C[9]=273211.0
C[10]=273209.0
C[11]=273200.0
C[12]=273197.0
C[13]=273191.0
C[14]=273178.0
y[0]=1
y[1]=6
y[2]=12
y[3]=4
y[4]=4
y[5]=1
y[6]=5
y[7]=10
y[8]=14
y[9]=14
y[10]=3
y[11]=3
y[12]=11
y[13]=12
y[14]=5
y[15]=11
y[16]=5
y[17]=1
y[18]=8
y[19]=14
y[20]=6
y[21]=5
y[22]=8
y[23]=14
y[24]=4
y[25]=3
y[26]=3
y[27]=0
y[28]=2
y[29]=5
y[30]=6
y[31]=0
y[32]=3
y[33]=5
y[34]=1
y[35]=13
y[36]=8
y[37]=3
y[38]=9
y[39]=3
y[40]=3
y[41]=3
y[42]=12
y[43]=4
y[44]=3
y[45]=0
y[46]=12
y[47]=7
y[48]=3
y[49]=9
y[50]=7
y[51]=14
y[52]=8
y[53]=4
y[54]=1
y[55]=2
y[56]=3
y[57]=0
y[58]=5
y[59]=14
y[60]=14
y[61]=13
y[62]=11
y[63]=9
y[64]=10
y[65]=1
y[66]=3
y[67]=9
y[68]=14
y[69]=0
y[70]=10
y[71]=6
y[72]=0
y[73]=10
y[74]=1
y[75]=0
y[76]=0
y[77]=7
y[78]=2
y[79]=4
y[80]=14
y[81]=1
y[82]=7
y[83]=4
y[84]=0
y[85]=2
y[86]=12
y[87]=9
y[88]=5
y[89]=3
y[90]=13
y[91]=6
y[92]=2
y[93]=5
y[94]=2
y[95]=0
y[96]=1
y[97]=8
y[98]=1
y[99]=13
y[100]=11
y[101]=14
y[102]=11
y[103]=3
y[104]=0
y[105]=8
y[106]=9
y[107]=1
y[108]=5
y[109]=10
y[110]=4
y[111]=14
y[112]=6
y[113]=0
y[114]=3
y[115]=1
y[116]=3
y[117]=11
y[118]=5
y[119]=13
y[120]=1
y[121]=5
y[122]=8
y[123]=9
y[124]=13
y[125]=13
y[126]=9
y[127]=1
y[128]=7
y[129]=2
y[130]=10
y[131]=13
y[132]=4
y[133]=13
y[134]=5
y[135]=12
y[136]=1
y[137]=14
y[138]=10
y[139]=6
y[140]=5
y[141]=13
y[142]=0
y[143]=10
y[144]=6
y[145]=5
y[146]=12
y[147]=4
y[148]=1
y[149]=2
y[150]=3
y[151]=3
y[152]=4
y[153]=4
y[154]=1
y[155]=0
y[156]=5
y[157]=12
y[158]=10
y[159]=3
y[160]=3
y[161]=8
y[162]=0
y[163]=11
y[164]=5
y[165]=12
y[166]=4
y[167]=2
y[168]=5
y[169]=11
y[170]=5
y[171]=8
y[172]=8
y[173]=13
y[174]=8
y[175]=1
y[176]=0
y[177]=5
y[178]=9
y[179]=7
y[180]=1
y[181]=6
y[182]=4
y[183]=4
y[184]=5
y[185]=5
y[186]=11
y[187]=14
y[188]=14
y[189]=9
y[190]=5
y[191]=5
y[192]=0
y[193]=0
y[194]=2
y[195]=10
y[196]=10
y[197]=6
y[198]=5
y[199]=0
y[200]=11
y[201]=5
y[202]=4
y[203]=12
y[204]=1
y[205]=10
y[206]=5
y[207]=7
y[208]=2
y[209]=12
y[210]=14
y[211]=4
y[212]=13
y[213]=5
y[214]=13
y[215]=14
y[216]=5
y[217]=5
y[218]=7
y[219]=4
y[220]=7
y[221]=1
y[222]=7
y[223]=3
y[224]=13
y[225]=9
y[226]=0
y[227]=14
y[228]=6
y[229]=13
y[230]=0
y[231]=9
y[232]=2
y[233]=10
y[234]=12
y[235]=12
y[236]=7
y[237]=7
y[238]=7
y[239]=12
y[240]=0
y[241]=7
y[242]=10
y[243]=5
y[244]=1
y[245]=1
y[246]=6
y[247]=9
y[248]=10
y[249]=3
y[250]=2
y[251]=10
y[252]=5
y[253]=10
y[254]=7
y[255]=5
y[256]=10
y[257]=3
y[258]=5
y[259]=3
y[260]=11
y[261]=11
y[262]=1
y[263]=8
y[264]=2
y[265]=1
y[266]=2
y[267]=13
y[268]=6
y[269]=5
y[270]=2
y[271]=9
y[272]=14
y[273]=3
y[274]=10
y[275]=10
y[276]=10
y[277]=6
y[278]=12
y[279]=3
y[280]=2
y[281]=6
y[282]=11
y[283]=2
y[284]=5
y[285]=5
y[286]=0
y[287]=9
y[288]=10
y[289]=5
y[290]=7
y[291]=0
y[292]=8
y[293]=14
y[294]=8
y[295]=5
y[296]=7
y[297]=8
y[298]=8
y[299]=2
y[300]=13
y[301]=5
y[302]=10
y[303]=2
y[304]=2
y[305]=11
y[306]=7
y[307]=10
y[308]=14
y[309]=1
y[310]=8
y[311]=14
y[312]=14
y[313]=7
y[314]=0
y[315]=5
y[316]=13
y[317]=5
y[318]=4
y[319]=12
y[320]=5
y[321]=11
y[322]=5
y[323]=5
y[324]=5
y[325]=7
y[326]=9
y[327]=3
y[328]=12
y[329]=5
y[330]=8
y[331]=1
y[332]=5
y[333]=13
y[334]=14
y[335]=9
y[336]=4
y[337]=12
y[338]=3
y[339]=3
y[340]=3
y[341]=11
y[342]=1
y[343]=9
y[344]=5
y[345]=5
y[346]=5
y[347]=4
y[348]=6
y[349]=5
y[350]=5
y[351]=0
y[352]=5
y[353]=6
y[354]=4
y[355]=5
y[356]=5
y[357]=2
y[358]=7
y[359]=5
y[360]=13
y[361]=4
y[362]=10
y[363]=1
y[364]=7
y[365]=0
y[366]=5
y[367]=3
y[368]=6
y[369]=14
y[370]=2
y[371]=7
y[372]=5
y[373]=0
y[374]=11
y[375]=4
y[376]=5
y[377]=8
y[378]=5
y[379]=7
y[380]=3
y[381]=10
y[382]=7
y[383]=5
y[384]=0
y[385]=5
y[386]=9
y[387]=0
y[388]=11
y[389]=13
y[390]=0
y[391]=12
y[392]=11
y[393]=11
y[394]=4
y[395]=10
y[396]=8
y[397]=10
y[398]=5
y[399]=4
