data/solutions/planning/wellformed/hard/highest_rank_objective/wellformed_hard_instance42_cplex.log
Found incumbent of value 4098176.000000 after 0.00 sec. (0.49 ticks)
Tried aggregator 2 times.
Aggregator did 15 substitutions.
Reduced MIP has 415 rows, 6001 columns, and 12015 nonzeros.
Reduced MIP has 6000 binaries, 0 generals, 0 SOSs, and 0 indicators.
Presolve time = 0.01 sec. (8.78 ticks)
Tried aggregator 1 time.
Reduced MIP has 415 rows, 6001 columns, and 12015 nonzeros.
Reduced MIP has 6000 binaries, 1 generals, 0 SOSs, and 0 indicators.
Presolve time = 0.01 sec. (5.72 ticks)
Probing time = 0.00 sec. (2.34 ticks)
Clique table members: 400.
MIP emphasis: balance optimality and feasibility.
MIP search method: dynamic search.
Parallel mode: none, using 1 thread.
Root relaxation solution time = 0.02 sec. (31.11 ticks)

        Nodes                                         Cuts/
   Node  Left     Objective  IInf  Best Integer    Best Bound    ItCnt     Gap

*     0+    0                      4098176.0000        0.0000           100.00%
      0     0   273211.7333    29  4098176.0000   273211.7333      473   93.33%
*     0+    0                       285193.0000   273211.7333             4.20%
      0     0   273212.0000    28   285193.0000      Fract: 5      495    4.20%
*     0+    0                       283706.0000   273212.0000             3.70%
      0     0   273212.0000    33   283706.0000      Cuts: 26      556    3.70%
*     0+    0                       283533.0000   273212.0000             3.64%
      0     0   273212.0000    39   283533.0000   MIRcuts: 13      610    3.64%
*     0+    0                       282236.0000   273212.0000             3.20%
*     0+    0                       281646.0000   273212.0000             2.99%
*     0+    0                       278808.0000   273212.0000             2.01%
*     0+    0                       277979.0000   273212.0000             1.71%
*     0+    0                       277931.0000   273212.0000             1.70%
*     0+    0                       276430.0000   273212.0000             1.16%
*     0+    0                       276287.0000   273212.0000             1.11%
*     0+    0                       275894.0000   273212.0000             0.97%
*     0+    0                       275870.0000   273212.0000             0.96%
*     0+    0                       275539.0000   273212.0000             0.84%
*     0+    0                       274389.0000   273212.0000             0.43%
*     0+    0                       274348.0000   273212.0000             0.41%
*     0+    0                       274085.0000   273212.0000             0.32%
*     0+    0                       274049.0000   273212.0000             0.31%
      0     2   273212.0000    22   274049.0000   273212.0000      616    0.31%
Elapsed time = 0.44 sec. (561.15 ticks, tree = 0.01 MB, solutions = 18)
    130   132   273212.0000    22   274049.0000   273212.0000     1644    0.31%
    131   133   273212.0000    21   274049.0000   273212.0000     1653    0.31%
    132   134   273212.0000    21   274049.0000   273212.0000     1655    0.31%
    133   135   273212.0000    21   274049.0000   273212.0000     1674    0.31%
    134   136   273212.0000    23   274049.0000   273212.0000     1677    0.31%
    135   137   273212.0000    23   274049.0000   273212.0000     1688    0.31%
    136   138   273212.0000    24   274049.0000   273212.0000     1699    0.31%
    137   139   273212.0000    22   274049.0000   273212.0000     1703    0.31%
    138   140   273212.0000    22   274049.0000   273212.0000     1708    0.31%
    472   474   273212.0000    19   274049.0000   273212.0000     3610    0.31%
Elapsed time = 1.14 sec. (1526.81 ticks, tree = 3.66 MB, solutions = 18)
*   473+  316                       273869.0000   273212.0000             0.24%
    573   372   273212.0000    22   273869.0000   273212.0000     4394    0.24%
    574   372   273212.0000    22   273869.0000   273212.0000     4395    0.24%
    575   373   273212.0000    22   273869.0000   273212.0000     4396    0.24%
    576   374   273212.0000    22   273869.0000   273212.0000     4397    0.24%
    577   374   273212.0000    22   273869.0000   273212.0000     4398    0.24%
    578   374   273212.0000    22   273869.0000   273212.0000     4399    0.24%
    579   375   273212.0000    22   273869.0000   273212.0000     4400    0.24%
    580   375   273212.0000    22   273869.0000   273212.0000     4401    0.24%
    581   376   273212.0000    22   273869.0000   273212.0000     4402    0.24%
    582   377   273212.0000    22   273869.0000   273212.0000     4404    0.24%
Elapsed time = 1.95 sec. (2684.99 ticks, tree = 2.85 MB, solutions = 19)
    773   503   273212.0000    24   273869.0000   273212.0000     5676    0.24%
    774   503   273212.0000    24   273869.0000   273212.0000     5677    0.24%
    775   504   273212.0000    24   273869.0000   273212.0000     5678    0.24%
    776   505   273212.0000    24   273869.0000   273212.0000     5679    0.24%
    777   505   273212.0000    24   273869.0000   273212.0000     5680    0.24%
    778   506   273212.0000    24   273869.0000   273212.0000     5681    0.24%
    779   507   273212.0000    24   273869.0000   273212.0000     5682    0.24%
    780   507   273212.0000    24   273869.0000   273212.0000     5683    0.24%
    781   507   273212.0000    24   273869.0000   273212.0000     5684    0.24%
    782   508   273212.0000    24   273869.0000   273212.0000     5685    0.24%
Elapsed time = 2.61 sec. (3714.37 ticks, tree = 3.86 MB, solutions = 19)
   1026   646   273215.0000    22   273869.0000   273212.0000     6552    0.24%
   1027   646   273215.0000    23   273869.0000   273212.0000     6558    0.24%
   1028   647   273215.0000    21   273869.0000   273212.0000     6562    0.24%
   1029   647   273215.0000    21   273869.0000   273212.0000     6565    0.24%
   1030   647   273215.0000    21   273869.0000   273212.0000     6576    0.24%
   1031   647   273215.0000    21   273869.0000   273212.0000     6578    0.24%
   1032   648   273215.0000    21   273869.0000   273212.0000     6582    0.24%
   1033   648   273215.0000    19   273869.0000   273212.0000     6590    0.24%
   1034   649   273215.0000    19   273869.0000   273212.0000     6592    0.24%
   1035   650   273215.0000    21   273869.0000   273212.0000     6602    0.24%
Elapsed time = 3.26 sec. (4703.41 ticks, tree = 5.03 MB, solutions = 19)
*  1073+  645                       273859.0000   273212.0000             0.24%
*  1073+  628                       273833.0000   273212.0000             0.23%
*  1073+  615                       273798.0000   273212.0000             0.21%
*  1073+  606                       273739.0000   273212.0000             0.19%
*  1073+  590                       273574.0000   273212.0000             0.13%
*  1143+  651                       273548.0000   273212.0000             0.12%
*  1153+  661                       273530.0000   273212.0000             0.12%
*  1163+  669                       273492.0000   273212.0000             0.10%
*  1183+  689                       273471.0000   273212.0000             0.09%
*  1193+  699                       273467.0000   273212.0000             0.09%
*  1203+  709                       273466.0000   273212.0000             0.09%
*  1273+  768                       273316.0000   273212.0000             0.04%
*  1273+  764                       273298.0000   273212.0000             0.03%
*  1273+  763                       273289.0000   273212.0000             0.03%
*  1323+  806                       273286.0000   273212.0000             0.03%
   1363   825   273283.0000     8   273286.0000   273212.0000     7743    0.03%
   1364   826   273283.0000     8   273286.0000   273212.0000     7743    0.03%
   1365   827   273283.0000     6   273286.0000   273212.0000     7745    0.03%
   1366   826    infeasible         273286.0000   273212.0000     7745    0.03%
   1367   827   273283.0000     6   273286.0000   273212.0000     7747    0.03%
   1368   826    infeasible         273286.0000   273212.0000     7747    0.03%
   1369   825    infeasible         273286.0000   273212.0000     7747    0.03%
   1370   826   273212.0000    21   273286.0000   273212.0000     7750    0.03%
   1371   827   273212.0000    20   273286.0000   273212.0000     7764    0.03%
   1372   828   273212.0000    23   273286.0000   273212.0000     7774    0.03%
Elapsed time = 3.80 sec. (5678.19 ticks, tree = 6.57 MB, solutions = 34)
*  1423+  872                       273275.0000   273212.0000             0.02%
   1573  1024   273212.0000    25   273275.0000   273212.0000     9124    0.02%
   1574  1025   273212.0000    25   273275.0000   273212.0000     9126    0.02%
   1575  1026   273212.0000    23   273275.0000   273212.0000     9142    0.02%
   1576  1027   273212.0000    24   273275.0000   273212.0000     9151    0.02%
   1577  1028   273212.0000    24   273275.0000   273212.0000     9162    0.02%
   1578  1029   273212.0000    25   273275.0000   273212.0000     9163    0.02%
   1579  1030   273212.0000    23   273275.0000   273212.0000     9176    0.02%
   1580  1031   273212.0000    25   273275.0000   273212.0000     9181    0.02%
   1581  1032   273212.0000    25   273275.0000   273212.0000     9187    0.02%
   1582  1033   273212.0000    23   273275.0000   273212.0000     9193    0.02%
Elapsed time = 4.60 sec. (6743.11 ticks, tree = 8.12 MB, solutions = 35)
   1958  1409   273212.0000    27   273275.0000   273212.0000    11224    0.02%
   1959  1410   273212.0000    26   273275.0000   273212.0000    11230    0.02%
   1960  1411   273212.0000    26   273275.0000   273212.0000    11237    0.02%
   1961  1412   273212.0000    27   273275.0000   273212.0000    11241    0.02%
   1962  1413   273212.0000    25   273275.0000   273212.0000    11247    0.02%
   1963  1414   273212.0000    25   273275.0000   273212.0000    11253    0.02%
   1964  1415   273212.0000    26   273275.0000   273212.0000    11257    0.02%
   1965  1416   273212.0000    26   273275.0000   273212.0000    11264    0.02%
   1966  1417   273212.0000    24   273275.0000   273212.0000    11271    0.02%
   1967  1418   273212.0000    25   273275.0000   273212.0000    11276    0.02%
Elapsed time = 5.20 sec. (7717.81 ticks, tree = 11.22 MB, solutions = 35)
   2483  1923   273212.0000    21   273275.0000   273212.0000    13456    0.02%
   2484  1924   273212.0000    23   273275.0000   273212.0000    13461    0.02%
   2485  1925   273212.0000    23   273275.0000   273212.0000    13480    0.02%
   2486  1926   273212.0000    23   273275.0000   273212.0000    13485    0.02%
   2487  1927   273212.0000    23   273275.0000   273212.0000    13490    0.02%
   2488  1928   273212.0000    23   273275.0000   273212.0000    13495    0.02%
   2489  1929   273212.0000    23   273275.0000   273212.0000    13500    0.02%
   2490  1930   273212.0000    23   273275.0000   273212.0000    13504    0.02%
   2491  1931   273212.0000    23   273275.0000   273212.0000    13517    0.02%
   2492  1932   273212.0000    23   273275.0000   273212.0000    13528    0.02%
Elapsed time = 5.77 sec. (8683.57 ticks, tree = 15.48 MB, solutions = 35)
   3059  2498   273269.0000     8   273275.0000   273212.0000    16095    0.02%
   3060  2499   273269.0000     9   273275.0000   273212.0000    16099    0.02%
   3061  2500   273269.0000    10   273275.0000   273212.0000    16103    0.02%
   3062  2501   273269.0000    10   273275.0000   273212.0000    16104    0.02%
   3063  2502   273269.0000    12   273275.0000   273212.0000    16107    0.02%
   3064  2503   273269.0000    12   273275.0000   273212.0000    16108    0.02%
   3065  2504   273269.0000    12   273275.0000   273212.0000    16111    0.02%
   3066  2505   273269.0000     9   273275.0000   273212.0000    16114    0.02%
   3067  2506   273269.0000     9   273275.0000   273212.0000    16116    0.02%
   3068  2507   273269.0000    10   273275.0000   273212.0000    16120    0.02%
Elapsed time = 6.35 sec. (9651.19 ticks, tree = 20.22 MB, solutions = 35)
   3787  3225   273218.0000    23   273275.0000   273212.0000    19785    0.02%
   3788  3226   273218.0000    19   273275.0000   273212.0000    19794    0.02%
   3789  3227   273218.0000    19   273275.0000   273212.0000    19801    0.02%
   3790  3228   273218.0000    19   273275.0000   273212.0000    19808    0.02%
   3791  3229   273218.0000    21   273275.0000   273212.0000    19817    0.02%
   3792  3230   273218.0000    19   273275.0000   273212.0000    19825    0.02%
   3793  3231   273218.0000    19   273275.0000   273212.0000    19834    0.02%
   3794  3232   273218.0000    20   273275.0000   273212.0000    19844    0.02%
   3795  3233   273218.0000    20   273275.0000   273212.0000    19847    0.02%
   6437  5862   273212.0000    24   273275.0000   273212.0000    32748    0.02%
Elapsed time = 8.68 sec. (13466.63 ticks, tree = 47.34 MB, solutions = 35)
*  9273+ 7975                       273261.0000   273212.0000             0.02%
   9873  8564   273251.0000    20   273261.0000   273212.0000    48723    0.02%
   9874  8565   273212.0000    20   273261.0000   273212.0000    48726    0.02%
   9875  8566   273212.0000    21   273261.0000   273212.0000    48735    0.02%
   9876  8567   273225.0000    19   273261.0000   273212.0000    48736    0.02%
   9877  8568   273225.0000    18   273261.0000   273212.0000    48739    0.02%
   9878  8569   273225.0000    18   273261.0000   273212.0000    48749    0.02%
   9879  8570   273225.0000    19   273261.0000   273212.0000    48754    0.02%
   9880  8571   273225.0000    19   273261.0000   273212.0000    48759    0.02%
   9881  8572   273225.0000    19   273261.0000   273212.0000    48764    0.02%
   9882  8573   273225.0000    19   273261.0000   273212.0000    48773    0.02%
Elapsed time = 11.75 sec. (18067.35 ticks, tree = 69.50 MB, solutions = 36)
* 10099  8393      integral     0   273260.0000   273212.0000    49589    0.02%
  13901 12127   273212.0000    22   273260.0000   273212.0000    65740    0.02%
  13902 12128   273212.0000    23   273260.0000   273212.0000    65750    0.02%
  13903 12129   273212.0000    22   273260.0000   273212.0000    65758    0.02%
  13904 12130   273212.0000    22   273260.0000   273212.0000    65765    0.02%
  13905 12131   273212.0000    21   273260.0000   273212.0000    65772    0.02%
  13906 12132   273212.0000    22   273260.0000   273212.0000    65778    0.02%
  13907 12133   273212.0000    22   273260.0000   273212.0000    65785    0.02%
  13908 12134   273212.0000    21   273260.0000   273212.0000    65795    0.02%
  13909 12135   273212.0000    22   273260.0000   273212.0000    65802    0.02%
  13910 12136   273212.0000    21   273260.0000   273212.0000    65808    0.02%
Elapsed time = 14.05 sec. (21892.48 ticks, tree = 98.61 MB, solutions = 37)
* 14607 12096      integral     0   273250.0000   273212.0000    68874    0.01%
* 17047 13968      integral     0   273248.0000   273212.0000    78296    0.01%
* 17053 13837      integral     0   273246.0000   273212.0000    78306    0.01%
  18136 14875   273216.0000    19   273246.0000   273212.0000    82389    0.01%
  18137 14876   273216.0000    18   273246.0000   273212.0000    82393    0.01%
  18138 14877   273216.0000    19   273246.0000   273212.0000    82398    0.01%
  18139 14878   273216.0000    19   273246.0000   273212.0000    82408    0.01%
  18140 14879   273216.0000    19   273246.0000   273212.0000    82409    0.01%
  18141 14880   273216.0000    20   273246.0000   273212.0000    82420    0.01%
  18142 14881   273216.0000    21   273246.0000   273212.0000    82423    0.01%
  18143 14882   273216.0000    20   273246.0000   273212.0000    82430    0.01%
  18144 14883   273216.0000    20   273246.0000   273212.0000    82436    0.01%
  18145 14884   273216.0000    21   273246.0000   273212.0000    82442    0.01%
Elapsed time = 16.32 sec. (25716.66 ticks, tree = 121.05 MB, solutions = 40)
  22087 18734   273224.0000    18   273246.0000   273212.0000    96845    0.01%
  22088 18735   273224.0000    17   273246.0000   273212.0000    96846    0.01%
  22089 18736   273224.0000    18   273246.0000   273212.0000    96847    0.01%
  22090 18737   273224.0000    18   273246.0000   273212.0000    96848    0.01%
  22091 18738   273224.0000    18   273246.0000   273212.0000    96849    0.01%
  22092 18739   273224.0000    18   273246.0000   273212.0000    96850    0.01%
  22093 18740   273224.0000    18   273246.0000   273212.0000    96851    0.01%
  22094 18741   273224.0000    18   273246.0000   273212.0000    96852    0.01%
  22095 18742   273224.0000    19   273246.0000   273212.0000    96855    0.01%
  22096 18743   273224.0000    19   273246.0000   273212.0000    96856    0.01%
Elapsed time = 18.55 sec. (29538.54 ticks, tree = 153.06 MB, solutions = 40)
  25942 22473   273214.0000    21   273246.0000   273212.0000   110165    0.01%
  25943 22474   273214.0000    21   273246.0000   273212.0000   110166    0.01%
  25944 22475   273214.0000    21   273246.0000   273212.0000   110167    0.01%
  25945 22476   273214.0000    21   273246.0000   273212.0000   110169    0.01%
  25946 22477   273214.0000    21   273246.0000   273212.0000   110171    0.01%
  25947 22478   273214.0000    21   273246.0000   273212.0000   110172    0.01%
  25948 22479   273214.0000    21   273246.0000   273212.0000   110173    0.01%
  25949 22480   273214.0000    20   273246.0000   273212.0000   110174    0.01%
  25950 22481   273214.0000    21   273246.0000   273212.0000   110175    0.01%
  25951 22482   273214.0000    21   273246.0000   273212.0000   110176    0.01%
Elapsed time = 20.75 sec. (33359.89 ticks, tree = 183.66 MB, solutions = 40)
  30008 26346   273219.0000    18   273246.0000   273212.0000   124537    0.01%
  30009 26347   273219.0000    19   273246.0000   273212.0000   124540    0.01%
  30010 26348   273219.0000    19   273246.0000   273212.0000   124541    0.01%
  30011 26349   273219.0000    19   273246.0000   273212.0000   124542    0.01%
  30012 26350   273219.0000    19   273246.0000   273212.0000   124543    0.01%
  30013 26351   273219.0000    17   273246.0000   273212.0000   124554    0.01%
  30014 26352   273219.0000    17   273246.0000   273212.0000   124557    0.01%
  30015 26353   273219.0000    17   273246.0000   273212.0000   124563    0.01%
  30016 26354   273219.0000    17   273246.0000   273212.0000   124564    0.01%
  30017 26355   273219.0000    16   273246.0000   273212.0000   124569    0.01%
Elapsed time = 22.99 sec. (37182.02 ticks, tree = 215.52 MB, solutions = 40)
  34278 30398   273217.0000    21   273246.0000   273212.0000   137970    0.01%
  34279 30399   273217.0000    19   273246.0000   273212.0000   137975    0.01%
  34280 30400   273217.0000    20   273246.0000   273212.0000   137985    0.01%
  34281 30401   273217.0000    20   273246.0000   273212.0000   137987    0.01%
  34282 30402   273217.0000    19   273246.0000   273212.0000   137989    0.01%
  34283 30403   273217.0000    20   273246.0000   273212.0000   138000    0.01%
  34284 30404   273217.0000    20   273246.0000   273212.0000   138002    0.01%
  34285 30405   273217.0000    19   273246.0000   273212.0000   138008    0.01%
  34286 30406   273217.0000    19   273246.0000   273212.0000   138009    0.01%
  34287 30406   273220.3636    18   273246.0000   273212.0000   138010    0.01%
Elapsed time = 25.23 sec. (41004.18 ticks, tree = 248.97 MB, solutions = 40)
  38245 34101   273223.0000    18   273246.0000   273212.0000   149818    0.01%
  38246 34102   273223.0000    17   273246.0000   273212.0000   149823    0.01%
  38247 34103   273223.0000    17   273246.0000   273212.0000   149825    0.01%
  38248 34104   273223.0000    17   273246.0000   273212.0000   149829    0.01%
  38249 34105   273223.0000    17   273246.0000   273212.0000   149831    0.01%
  38250 34106   273223.0000    17   273246.0000   273212.0000   149837    0.01%
  38251 34107   273223.0000    18   273246.0000   273212.0000   149838    0.01%
  38252 34108   273223.0000    18   273246.0000   273212.0000   149839    0.01%
  38253 34109   273223.0000    17   273246.0000   273212.0000   149845    0.01%
  38254 34110   273223.0000    18   273246.0000   273212.0000   149846    0.01%
Elapsed time = 27.63 sec. (44828.15 ticks, tree = 280.52 MB, solutions = 40)
* 41915 34482      integral     0   273241.0000   273212.0000   159332    0.01%
  42568 35091   273232.0000    10   273241.0000   273212.0000   161109    0.01%
  42569 35092   273232.0000    10   273241.0000   273212.0000   161114    0.01%
  42570 35093   273232.0000    10   273241.0000   273212.0000   161115    0.01%
  42571 35094   273232.0000    10   273241.0000   273212.0000   161120    0.01%
  42572 35095   273232.0000    10   273241.0000   273212.0000   161121    0.01%
  42573 35096   273232.0000    10   273241.0000   273212.0000   161125    0.01%
  42574 35097   273232.0000    10   273241.0000   273212.0000   161126    0.01%
  42575 35098   273232.0000    10   273241.0000   273212.0000   161127    0.01%
  42576 35099   273232.0000    10   273241.0000   273212.0000   161130    0.01%
  42577 35100   273232.0000    10   273241.0000   273212.0000   161131    0.01%
Elapsed time = 29.89 sec. (48651.35 ticks, tree = 288.56 MB, solutions = 41)
  47134 39394   273212.0000    20   273241.0000   273212.0000   172385    0.01%
  47135 39395   273212.0000    20   273241.0000   273212.0000   172388    0.01%
  47136 39396   273212.0000    20   273241.0000   273212.0000   172389    0.01%
  47137 39397   273212.0000    20   273241.0000   273212.0000   172390    0.01%
  47138 39398   273216.0000    18   273241.0000   273212.0000   172391    0.01%
  47139 39399   273216.0000    18   273241.0000   273212.0000   172392    0.01%
  47140 39400   273216.0000    18   273241.0000   273212.0000   172393    0.01%
  47141 39401   273216.0000    18   273241.0000   273212.0000   172394    0.01%
  47142 39402   273216.0000    18   273241.0000   273212.0000   172397    0.01%
  47143 39403   273216.0000    18   273241.0000   273212.0000   172401    0.01%
Elapsed time = 32.13 sec. (52473.98 ticks, tree = 323.88 MB, solutions = 41)
  51351 43409   273215.0000    18   273241.0000   273212.0000   182861    0.01%
  51352 43410   273215.0000    18   273241.0000   273212.0000   182869    0.01%
  51353 43411   273215.0000    18   273241.0000   273212.0000   182873    0.01%
  51354 43412   273215.0000    18   273241.0000   273212.0000   182876    0.01%
  51355 43413   273215.0000    18   273241.0000   273212.0000   182885    0.01%
  51356 43414   273215.0000    19   273241.0000   273212.0000   182897    0.01%
  51357 43415   273215.0000    19   273241.0000   273212.0000   182899    0.01%
  51358 43416   273220.0909    20   273241.0000   273212.0000   182906    0.01%
  51359 43417   273215.0000    19   273241.0000   273212.0000   182909    0.01%
  51360 43418   273215.0000    19   273241.0000   273212.0000   182911    0.01%
Elapsed time = 34.30 sec. (56298.13 ticks, tree = 356.86 MB, solutions = 41)
* 54273+38213                       273232.0000   273212.0000             0.01%

Root node processing (before b&c):
  Real time             =    0.45 sec. (562.41 ticks)
Sequential b&c:
  Real time             =   35.34 sec. (58284.24 ticks)
                          ------------
Total (root+branch&cut) =   35.79 sec. (58846.65 ticks)

Populate: phase II 
Tried aggregator 2 times.
Aggregator did 15 substitutions.
Reduced MIP has 415 rows, 6001 columns, and 12015 nonzeros.
Reduced MIP has 6000 binaries, 0 generals, 0 SOSs, and 0 indicators.
Presolve time = 0.01 sec. (8.78 ticks)
Probing time = 0.00 sec. (2.34 ticks)
Clique table members: 400.
MIP emphasis: balance optimality and feasibility.
MIP search method: dynamic search.
Parallel mode: none, using 1 thread.
Root relaxation solution time = 0.01 sec. (31.11 ticks)

        Nodes                                         Cuts/
   Node  Left     Objective  IInf  Best Integer    Best Bound    ItCnt     Gap

*     0+    0                       273232.0000        0.0000           100.00%
      0     0   273211.7333    29   273232.0000   273211.7333      473    0.01%
      0     2   273212.0000    28   273232.0000   273212.0000      473    0.01%
Elapsed time = 0.53 sec. (574.55 ticks, tree = 0.01 MB, solutions = 78)
      1     3   273212.0000    28   273232.0000   273212.0000      479    0.01%
      2     4   273212.0000    28   273232.0000   273212.0000      482    0.01%
      3     5   273212.0000    28   273232.0000   273212.0000      485    0.01%
      4     6   273212.0000    28   273232.0000   273212.0000      490    0.01%
      5     7   273212.0000    27   273232.0000   273212.0000      492    0.01%
      6     8   273212.0000    27   273232.0000   273212.0000      503    0.01%
      7     9   273212.0000    26   273232.0000   273212.0000      506    0.01%
      8    10   273212.0000    26   273232.0000   273212.0000      510    0.01%
      9    11   273212.0000    25   273232.0000   273212.0000      517    0.01%
     10    12   273212.0000    27   273232.0000   273212.0000      522    0.01%
Elapsed time = 3.26 sec. (3447.25 ticks, tree = 0.07 MB, solutions = 222)
     26    28   273212.0000    25   273232.0000   273212.0000      618    0.01%
     27    29   273212.0000    25   273232.0000   273212.0000      628    0.01%
     28    30   273212.0000    24   273232.0000   273212.0000      634    0.01%
     29    31   273212.0000    25   273232.0000   273212.0000      642    0.01%
     30    32   273212.0000    23   273232.0000   273212.0000      646    0.01%
     31    33   273212.0000    22   273232.0000   273212.0000      655    0.01%
     32    34   273212.0000    23   273232.0000   273212.0000      668    0.01%
     33    35   273212.0000    22   273232.0000   273212.0000      671    0.01%
     34    36   273212.0000    22   273232.0000   273212.0000      677    0.01%
     35    37   273212.0000    22   273232.0000   273212.0000      684    0.01%
Elapsed time = 5.01 sec. (4964.10 ticks, tree = 0.25 MB, solutions = 355)
     50    52   273212.0000    24   273232.0000   273212.0000      767    0.01%
     51    53   273212.0000    23   273232.0000   273212.0000      776    0.01%
     52    54   273212.0000    23   273232.0000   273212.0000      782    0.01%
     53    55   273212.0000    22   273232.0000   273212.0000      792    0.01%
     54    56   273212.0000    25   273232.0000   273212.0000      811    0.01%
     55    57   273212.0000    23   273232.0000   273212.0000      818    0.01%
     56    58   273212.0000    23   273232.0000   273212.0000      825    0.01%
     57    59   273212.0000    24   273232.0000   273212.0000      841    0.01%
     58    60   273212.0000    22   273232.0000   273212.0000      861    0.01%
     59    61   273212.0000    23   273232.0000   273212.0000      867    0.01%
Elapsed time = 6.93 sec. (6618.14 ticks, tree = 0.42 MB, solutions = 553)
     73    75   273212.0000    22   273232.0000   273212.0000      954    0.01%
     74    76   273212.0000    21   273232.0000   273212.0000      957    0.01%
     75    77   273212.0000    21   273232.0000   273212.0000      966    0.01%
     76    78   273212.0000    21   273232.0000   273212.0000      969    0.01%
     77    79   273212.0000    21   273232.0000   273212.0000      979    0.01%
     78    80   273212.0000    21   273232.0000   273212.0000      988    0.01%
     79    81   273212.0000    21   273232.0000   273212.0000      989    0.01%
     80    82   273212.0000    21   273232.0000   273212.0000      999    0.01%
     81    83   273212.0000    21   273232.0000   273212.0000     1015    0.01%
     82    84   273212.0000    21   273232.0000   273212.0000     1021    0.01%
Elapsed time = 8.76 sec. (8232.43 ticks, tree = 0.59 MB, solutions = 768)
     96    98   273212.0000    22   273232.0000   273212.0000     1104    0.01%
     97    99   273212.0000    21   273232.0000   273212.0000     1112    0.01%
     98   100   273212.0000    21   273232.0000   273212.0000     1124    0.01%
     99   101   273212.0000    21   273232.0000   273212.0000     1132    0.01%
    100   102   273212.0000    23   273232.0000   273212.0000     1139    0.01%
    101   103   273212.0000    22   273232.0000   273212.0000     1141    0.01%
    102   104   273212.0000    21   273232.0000   273212.0000     1150    0.01%
    103   105   273212.0000    21   273232.0000   273212.0000     1151    0.01%
    104   106   273212.0000    21   273232.0000   273212.0000     1162    0.01%
    105   107   273212.0000    22   273232.0000   273212.0000     1167    0.01%
Elapsed time = 10.68 sec. (9905.18 ticks, tree = 0.75 MB, solutions = 999)
    121   123   273212.0000    22   273232.0000   273212.0000     1297    0.01%
    122   124   273212.0000    22   273232.0000   273212.0000     1309    0.01%
    123   125   273212.0000    22   273232.0000   273212.0000     1314    0.01%
    124   126   273212.0000    24   273232.0000   273212.0000     1339    0.01%
    125   127   273212.0000    22   273232.0000   273212.0000     1342    0.01%
    126   128   273212.0000    22   273232.0000   273212.0000     1343    0.01%
    127   129   273212.0000    22   273232.0000   273212.0000     1352    0.01%
    128   130   273212.0000    23   273232.0000   273212.0000     1354    0.01%
    129   131   273212.0000    22   273232.0000   273212.0000     1364    0.01%
    130   132   273212.0000    24   273232.0000   273212.0000     1386    0.01%
Elapsed time = 12.51 sec. (11470.82 ticks, tree = 0.94 MB, solutions = 1203)
    147   149   273212.0000    24   273232.0000   273212.0000     1525    0.01%
    148   150   273212.0000    24   273232.0000   273212.0000     1536    0.01%
    149   151   273212.0000    24   273232.0000   273212.0000     1537    0.01%
    150   152   273212.0000    25   273232.0000   273212.0000     1551    0.01%
    151   153   273212.0000    24   273232.0000   273212.0000     1558    0.01%
    152   154   273212.0000    24   273232.0000   273212.0000     1565    0.01%
    153   155   273212.0000    24   273232.0000   273212.0000     1572    0.01%
    154   156   273212.0000    25   273232.0000   273212.0000     1583    0.01%
    155   157   273212.0000    24   273232.0000   273212.0000     1589    0.01%
    156   158   273212.0000    26   273232.0000   273212.0000     1595    0.01%
Elapsed time = 14.23 sec. (12954.97 ticks, tree = 1.13 MB, solutions = 1394)
    172   174   273212.0000    26   273232.0000   273212.0000     1716    0.01%
    173   175   273212.0000    26   273232.0000   273212.0000     1718    0.01%
    174   176   273212.0000    25   273232.0000   273212.0000     1722    0.01%
    175   177   273212.0000    23   273232.0000   273212.0000     1730    0.01%
    176   178   273212.0000    24   273232.0000   273212.0000     1735    0.01%
    177   179   273212.0000    24   273232.0000   273212.0000     1737    0.01%
    178   180   273212.0000    22   273232.0000   273212.0000     1748    0.01%
    179   181   273212.0000    22   273232.0000   273212.0000     1760    0.01%
    180   182   273212.0000    22   273232.0000   273212.0000     1764    0.01%
    181   183   273212.0000    22   273232.0000   273212.0000     1770    0.01%
Elapsed time = 16.17 sec. (14582.68 ticks, tree = 1.32 MB, solutions = 1631)
    195   197   273212.0000    22   273232.0000   273212.0000     1855    0.01%
    196   198   273212.0000    22   273232.0000   273212.0000     1859    0.01%
    197   199   273212.0000    25   273232.0000   273212.0000     1871    0.01%
    198   200   273212.0000    22   273232.0000   273212.0000     1874    0.01%
    199   201   273212.0000    22   273232.0000   273212.0000     1883    0.01%
    200   202   273212.0000    22   273232.0000   273212.0000     1886    0.01%
    201   203   273212.0000    23   273232.0000   273212.0000     1888    0.01%
    202   204   273212.0000    22   273232.0000   273212.0000     1895    0.01%
    203   205   273212.0000    27   273232.0000   273212.0000     1910    0.01%
    204   206   273212.0000    23   273232.0000   273212.0000     1913    0.01%
Elapsed time = 17.81 sec. (16030.42 ticks, tree = 1.50 MB, solutions = 1804)
    219   221   273212.0000    23   273232.0000   273212.0000     2006    0.01%
    220   222   273212.0000    23   273232.0000   273212.0000     2015    0.01%
    221   223   273212.0000    23   273232.0000   273212.0000     2018    0.01%
    222   224   273212.0000    26   273232.0000   273212.0000     2029    0.01%
    223   225   273212.0000    24   273232.0000   273212.0000     2031    0.01%
    224   226   273212.0000    23   273232.0000   273212.0000     2035    0.01%
    225   227   273212.0000    25   273232.0000   273212.0000     2047    0.01%
    226   228   273212.0000    22   273232.0000   273212.0000     2051    0.01%
    227   229   273212.0000    22   273232.0000   273212.0000     2057    0.01%

Root node processing (before b&c):
  Real time             =    0.58 sec. (656.50 ticks)
Sequential b&c:
  Real time             =   19.88 sec. (17719.97 ticks)
                          ------------
Total (root+branch&cut) =   20.46 sec. (18376.47 ticks)
